p tw 76 85
1 2
2 13
3 4
4 5
5 6
6 7
7 8
8 9
9 10
10 11
11 12
12 14
13 24
14 15
14 16
15 73
16 17
17 18
18 19
18 58
19 20
20 21
21 22
22 23
23 25
24 35
25 26
26 27
26 33
27 28
28 29
29 30
30 31
30 33
31 32
32 23
33 34
34 36
35 46
36 37
37 38
38 39
38 9
39 40
40 41
41 42
41 54
42 43
43 44
44 45
44 54
45 47
46 57
47 48
48 49
49 50
50 51
51 52
52 53
53 54
54 55
55 56
56 37
57 68
57 3
58 59
59 60
60 61
60 9
61 62
62 63
63 64
64 65
65 66
66 67
67 69
68 75
69 9
70 71
71 72
72 73
73 74
75 76
75 12
76 70
